proyfinal/src/viki/013/experimentInOfficeAgust.take6.output/52f42fc1-7086-4767-a97d-1e9105e1e8c9.als.dat
{'cnf.clauses': '118081',
 'cnf.totvars': '69608',
 'conflict literals': '934',
 'conflicts': '105',
 'decisions': '4040',
 'memused.mb': '15.41',
 'outcome': 'UNSAT',
 'propagations': '122894',
 'restarts': '2',
 'solver.msecs': 38,
 'task.msecs': 98}
