proyfinal/src/viki/013/experimentInOfficeAgust.take6.output/52f42fc1-7086-4767-a97d-1e9105e1e8c9.als.out
Reading from standard input... Use '--help' for help.
============================[ Problem Statistics ]=============================
|                                                                             |
|  Number of variables:         69608                                         |
|  Number of clauses:          118081                                         |
|  Parse time:                   0.02 s                                       |
|                                                                             |
============================[ Search Statistics ]==============================
| Conflicts |          ORIGINAL         |          LEARNT          | Progress |
|           |    Vars  Clauses Literals |    Limit  Clauses Lit/Cl |          |
===============================================================================
|       100 |   56648    81420   201473 |    29854       94     10 | 18.619 % |
===============================================================================
restarts              : 2
conflicts             : 105            (2752 /sec)
decisions             : 4040           (0.00 % random) (105887 /sec)
propagations          : 122894         (3220999 /sec)
conflict literals     : 934            (26.22 % deleted)
Memory used           : 15.41 MB
CPU time              : 0.038154 s

UNSATISFIABLE
